Academic license - for non-commercial use only - expires 2022-11-10
Using license file /home/benedond/Apps/gurobi/gurobi950/gurobi.lic
Using gurobi.env file
Set parameter Threads to value 1
Changed value of parameter TimeLimit to 1200.0
   Prev: inf  Min: 0.0  Max: inf  Default: inf
Gurobi Optimizer version 9.1.2 build v9.1.2rc0 (linux64)
Thread count: 2 physical cores, 4 logical processors, using up to 1 threads
Optimize a model with 2424 rows, 1200 columns and 9310 nonzeros
Model fingerprint: 0xf22787a0
Variable types: 24 continuous, 1176 integer (1152 binary)
Coefficient statistics:
  Matrix range     [2e-01, 3e+03]
  Objective range  [1e-03, 2e-01]
  Bounds range     [1e+00, 1e+00]
  RHS range        [1e+00, 3e+03]

---------------------------------------------------------------------------
Multi-objectives: starting optimization with 1 objectives ... 
---------------------------------------------------------------------------
---------------------------------------------------------------------------

Multi-objectives: optimize objective 1 (min avg power cons) ...
---------------------------------------------------------------------------

Optimize a model with 2424 rows, 1200 columns and 9310 nonzeros
Model fingerprint: 0x29cd1914
Variable types: 24 continuous, 1176 integer (1152 binary)
Coefficient statistics:
  Matrix range     [2e-01, 3e+03]
  Objective range  [1e-03, 2e-01]
  Bounds range     [1e+00, 1e+00]
  RHS range        [1e+00, 3e+03]
Presolve removed 1575 rows and 774 columns
Presolve time: 0.05s
Presolved: 849 rows, 426 columns, 3152 nonzeros
Variable types: 19 continuous, 407 integer (388 binary)

Root relaxation: objective 1.286634e+00, 219 iterations, 0.00 seconds

    Nodes    |    Current Node    |     Objective Bounds      |     Work
 Expl Unexpl |  Obj  Depth IntInf | Incumbent    BestBd   Gap | It/Node Time

     0     0    1.28663    0   56          -    1.28663      -     -    0s
H    0     0                       3.3487327    1.28663  61.6%     -    0s
H    0     0                       3.3156139    1.28663  61.2%     -    0s
     0     0    1.31075    0   60    3.31561    1.31075  60.5%     -    0s
H    0     0                       3.0281386    1.31075  56.7%     -    0s
H    0     0                       2.9269406    1.31075  55.2%     -    0s
     0     0    1.31075    0   74    2.92694    1.31075  55.2%     -    0s
     0     0    1.48176    0   77    2.92694    1.48176  49.4%     -    0s
     0     0    1.48400    0   77    2.92694    1.48400  49.3%     -    0s
     0     0    1.53415    0   72    2.92694    1.53415  47.6%     -    0s
     0     0    1.56315    0   69    2.92694    1.56315  46.6%     -    0s
     0     0    1.60518    0   80    2.92694    1.60518  45.2%     -    0s
H    0     0                       2.9057228    1.60518  44.8%     -    0s
     0     0    1.61083    0   88    2.90572    1.61083  44.6%     -    0s
     0     0    1.76091    0   98    2.90572    1.76091  39.4%     -    0s
H    0     0                       2.8977327    1.76091  39.2%     -    0s
     0     0    1.76850    0   94    2.89773    1.76850  39.0%     -    0s
     0     0    1.77114    0   93    2.89773    1.77114  38.9%     -    0s
     0     0    1.77420    0  105    2.89773    1.77420  38.8%     -    0s
     0     0    1.77484    0  104    2.89773    1.77484  38.8%     -    0s
     0     0    1.77551    0  105    2.89773    1.77551  38.7%     -    0s
     0     0    1.77571    0  106    2.89773    1.77571  38.7%     -    0s
     0     0    1.77571    0  109    2.89773    1.77571  38.7%     -    0s
     0     0    1.78900    0   94    2.89773    1.78900  38.3%     -    0s
     0     0    1.79535    0   97    2.89773    1.79535  38.0%     -    0s
     0     0    1.80223    0   91    2.89773    1.80223  37.8%     -    0s
     0     0    1.80343    0   96    2.89773    1.80343  37.8%     -    0s
     0     0    1.80384    0  109    2.89773    1.80384  37.7%     -    0s
     0     0    1.80401    0  110    2.89773    1.80401  37.7%     -    0s
     0     0    1.80411    0   94    2.89773    1.80411  37.7%     -    0s
     0     0    1.80870    0   99    2.89773    1.80870  37.6%     -    0s
     0     0    1.81278    0  110    2.89773    1.81278  37.4%     -    0s
     0     0    1.81536    0  101    2.89773    1.81536  37.4%     -    0s
     0     0    1.81632    0  112    2.89773    1.81632  37.3%     -    0s
     0     0    1.81650    0  114    2.89773    1.81650  37.3%     -    0s
     0     0    1.81655    0  114    2.89773    1.81655  37.3%     -    0s
     0     0    1.82251    0   91    2.89773    1.82251  37.1%     -    0s
H    0     0                       2.8774456    1.82251  36.7%     -    0s
     0     0    1.82409    0   94    2.87745    1.82409  36.6%     -    0s
     0     0    1.82447    0   99    2.87745    1.82447  36.6%     -    0s
     0     0    1.82473    0  100    2.87745    1.82473  36.6%     -    0s
     0     0    1.82474    0   99    2.87745    1.82474  36.6%     -    0s
     0     0    1.82805    0  109    2.87745    1.82805  36.5%     -    0s
H    0     0                       2.7083664    1.82805  32.5%     -    0s
     0     0    1.82837    0  109    2.70837    1.82837  32.5%     -    0s
     0     0    1.82857    0  109    2.70837    1.82857  32.5%     -    0s
     0     0    1.82858    0  110    2.70837    1.82858  32.5%     -    0s
     0     0    1.82880    0  108    2.70837    1.82880  32.5%     -    0s
H    0     0                       2.7016733    1.82880  32.3%     -    0s
     0     0    1.82892    0  105    2.70167    1.82892  32.3%     -    0s
     0     0    1.82933    0   95    2.70167    1.82933  32.3%     -    0s
H    0     0                       2.6988218    1.82933  32.2%     -    0s
     0     0    1.82999    0  102    2.69882    1.82999  32.2%     -    0s
     0     0    1.83017    0  106    2.69882    1.83017  32.2%     -    0s
     0     0    1.83083    0  108    2.69882    1.83083  32.2%     -    0s
     0     0    1.83083    0  108    2.69882    1.83083  32.2%     -    0s
H    0     0                       2.6564456    1.83202  31.0%     -    0s
     0     2    1.83202    0  106    2.65645    1.83202  31.0%     -    0s
H   78    69                       2.6442970    1.85969  29.7%  38.3    0s
H  106    82                       2.6270891    1.86831  28.9%  35.6    0s
H  300   210                       2.5941386    1.87598  27.7%  27.8    0s
H  382   251                       2.5623564    1.90073  25.8%  27.7    0s
H  450   281                       2.5550990    1.90850  25.3%  28.8    0s
H  655   365                       2.5500099    1.92806  24.4%  49.7    3s
H  678   361                       2.5475545    1.92806  24.3%  51.1    3s
H  682   348                       2.5391782    1.92806  24.1%  51.2    3s
H  730   331                       2.4977525    1.93776  22.4%  51.6    3s
  1072   403    2.12949   36   84    2.49775    1.96268  21.4%  52.4    5s
  3109  1209    2.21069   36   59    2.49775    2.07229  17.0%  50.2   10s
  4924  1803    2.39899   37   65    2.49775    2.11136  15.5%  53.3   15s
  6396  2208    2.16182   21   92    2.49775    2.14118  14.3%  54.7   20s
  8383  2731    2.48132   38   62    2.49775    2.18248  12.6%  55.1   25s
 10202  3144     cutoff   48         2.49775    2.22174  11.1%  54.8   35s
 12207  3570     cutoff   42         2.49775    2.25234  9.83%  54.4   40s
 14510  3885    2.37825   33   57    2.49775    2.28850  8.38%  53.8   45s
 16906  4209    2.44117   52   76    2.49775    2.31774  7.21%  52.9   50s
 19526  4440    2.39707   38   93    2.49775    2.34315  6.19%  51.7   55s
 22192  4422    2.42611   44   62    2.49775    2.36608  5.27%  50.9   60s
 24840  4375    2.44816   38   69    2.49775    2.38517  4.51%  50.0   65s
 27564  4286    2.46615   53   44    2.49775    2.40230  3.82%  48.9   70s
 30975  4054    2.47543   50   41    2.49775    2.41976  3.12%  47.2   75s
 34521  3579    2.45955   46   60    2.49775    2.43564  2.49%  45.3   80s
 38417  3106    2.46851   56   27    2.49775    2.44969  1.92%  43.0   85s
 43105  1963     cutoff   38         2.49775    2.46790  1.20%  40.1   90s

Cutting planes:
  Gomory: 4
  Cover: 189
  Implied bound: 114
  Projected implied bound: 40
  Clique: 3
  MIR: 244
  Flow cover: 398
  GUB cover: 12
  Mod-K: 2
  RLT: 7
  Relax-and-lift: 400

Explored 46457 nodes (1778266 simplex iterations) in 92.54 seconds
Thread count was 1 (of 4 available processors)

Solution count 10: 2.49775 2.53918 2.55001 ... 2.69882

Optimal solution found (tolerance 1.00e-04)
Best objective 2.497752474735e+00, best bound 2.497518644346e+00, gap 0.0094%

---------------------------------------------------------------------------
Multi-objectives: solved in 92.54 seconds, solution count 10

